(set-option :print-success false)
(set-logic QF_UF)
(declare-sort x13 0)
(declare-sort x21 0)
(declare-fun x144 () x21)
(declare-fun x120 (x21 x21) x21)
(declare-fun x158 () x21)
(declare-fun x23 () x21)
(declare-fun x114 () x21)
(declare-fun x145 (x21 x21) x21)
(declare-fun x146 () x21)
(assert (and (not (= (x145 x158 x158) x158)) (and (and (not (= (x145 x23 x23) x23)) (and (not (= (x145 x146 x146) x146)) (not (= x114 (x145 x114 x114))))) (not (= x144 (x145 x144 x144))))))
(assert (let ((x97 (x145 x23 x146)) (x28 (x145 x144 x23)) (x55 (x145 x146 x23)) (x93 (x145 x144 x146)) (x6 (x145 x144 x158)) (x136 (x145 x114 x158)) (x121 (x145 x146 x158)) (x67 (x145 x23 x23)) (x135 (x145 x158 x114)) (x123 (x145 x23 x114)) (x127 (x145 x114 x144)) (x60 (x145 x23 x144)) (x52 (x145 x144 x144)) (x105 (x145 x158 x146)) (x25 (x145 x144 x114)) (x53 (x145 x158 x144)) (x96 (x145 x23 x158)) (x72 (x145 x114 x114)) (x24 (x145 x146 x114)) (x103 (x145 x146 x144)) (x124 (x145 x158 x23)) (x82 (x145 x114 x23)) (x8 (x145 x146 x146)) (x43 (x145 x114 x146)) (x62 (x145 x158 x158))) (and (and (and (and (and (and (and (and (or (or (or (= x72 x23) (or (= x72 x146) (= x72 x114))) (= x144 x72)) (= x72 x158)) (or (= x43 x158) (or (= x144 x43) (or (= x43 x23) (or (= x43 x114) (= x146 x43)))))) (or (or (or (= x82 x23) (or (= x82 x146) (= x114 x82))) (= x144 x82)) (= x158 x82))) (or (or (or (= x23 x127) (or (= x127 x114) (= x127 x146))) (= x127 x144)) (= x127 x158))) (or (= x136 x158) (or (or (= x23 x136) (or (= x146 x136) (= x114 x136))) (= x136 x144)))) (and (or (= x121 x158) (or (= x144 x121) (or (or (= x121 x146) (= x121 x114)) (= x23 x121)))) (and (and (or (or (= x144 x55) (or (= x23 x55) (or (= x55 x146) (= x114 x55)))) (= x158 x55)) (and (or (= x158 x8) (or (= x144 x8) (or (= x23 x8) (or (= x8 x114) (= x8 x146))))) (or (= x24 x158) (or (= x24 x144) (or (= x24 x23) (or (= x24 x114) (= x146 x24))))))) (or (or (= x144 x103) (or (= x23 x103) (or (= x146 x103) (= x114 x103)))) (= x103 x158))))) (and (or (or (or (= x23 x96) (or (= x114 x96) (= x96 x146))) (= x96 x144)) (= x158 x96)) (and (or (= x60 x158) (or (= x144 x60) (or (= x60 x23) (or (= x146 x60) (= x114 x60))))) (and (or (or (= x144 x67) (or (or (= x67 x146) (= x114 x67)) (= x67 x23))) (= x67 x158)) (and (or (or (or (or (= x97 x146) (= x97 x114)) (= x23 x97)) (= x97 x144)) (= x158 x97)) (or (= x158 x123) (or (or (= x123 x23) (or (= x146 x123) (= x123 x114))) (= x144 x123)))))))) (and (and (and (and (or (or (= x144 x93) (or (= x23 x93) (or (= x93 x114) (= x146 x93)))) (= x93 x158)) (or (or (= x144 x25) (or (= x25 x23) (or (= x25 x114) (= x25 x146)))) (= x158 x25))) (or (= x28 x158) (or (= x28 x144) (or (or (= x28 x146) (= x114 x28)) (= x23 x28))))) (or (= x52 x158) (or (or (or (= x52 x146) (= x52 x114)) (= x23 x52)) (= x52 x144)))) (or (= x6 x158) (or (or (= x23 x6) (or (= x6 x114) (= x146 x6))) (= x144 x6))))) (and (and (and (or (or (or (= x23 x124) (or (= x146 x124) (= x114 x124))) (= x144 x124)) (= x158 x124)) (and (or (or (= x144 x135) (or (= x135 x23) (or (= x135 x114) (= x135 x146)))) (= x158 x135)) (or (or (= x144 x105) (or (or (= x105 x114) (= x146 x105)) (= x23 x105))) (= x158 x105)))) (or (= x53 x158) (or (= x144 x53) (or (= x53 x23) (or (= x146 x53) (= x114 x53)))))) (or (= x62 x158) (or (or (or (= x146 x62) (= x62 x114)) (= x62 x23)) (= x144 x62)))))))
(assert (let ((x72 (x145 x114 x114)) (x60 (x145 x144 x23)) (x103 (x145 x23 x23)) (x62 (x145 x158 x158)) (x97 (x145 x144 x146)) (x67 (x145 x146 x144)) (x127 (x145 x146 x146)) (x43 (x145 x146 x114)) (x96 (x145 x23 x144)) (x136 (x145 x23 x114)) (x25 (x145 x144 x144)) (x28 (x145 x114 x158)) (x8 (x145 x23 x146)) (x53 (x145 x144 x158)) (x121 (x145 x144 x114)) (x52 (x145 x158 x146)) (x124 (x145 x158 x144)) (x123 (x145 x114 x144)) (x82 (x145 x114 x146)) (x55 (x145 x146 x23)) (x6 (x145 x146 x158)) (x93 (x145 x158 x114)) (x105 (x145 x23 x158)) (x135 (x145 x158 x23)) (x24 (x145 x114 x23))) (and (and (and (or (or (or (not (= x103 x103)) (or (not (= x24 x136)) (not (= x8 x55)))) (not (= x96 x60))) (not (= x135 x105))) (and (or (not (= x93 x28)) (or (not (= x123 x121)) (or (or (not (= x72 x72)) (not (= x43 x82))) (not (= x24 x136))))) (or (or (not (= x67 x97)) (or (or (not (= x127 x127)) (not (= x43 x82))) (not (= x55 x8)))) (not (= x52 x6))))) (or (or (or (or (not (= x123 x121)) (not (= x97 x67))) (not (= x60 x96))) (not (= x25 x25))) (not (= x124 x53)))) (or (not (= x62 x62)) (or (or (not (= x135 x105)) (or (not (= x6 x52)) (not (= x93 x28)))) (not (= x124 x53)))))))
(assert (or (or (or (and (not (= x23 (x145 (x145 x158 x23) x158))) (and (not (= (x145 (x145 x144 x23) x144) x23)) (and (and (not (= x23 (x145 (x145 x146 x23) x146))) (not (= (x145 (x145 x114 x23) x114) x23))) (not (= (x145 (x145 x23 x23) x23) x23))))) (or (and (and (and (not (= (x145 (x145 x23 x114) x23) x114)) (and (not (= x114 (x145 (x145 x146 x114) x146))) (not (= (x145 (x145 x114 x114) x114) x114)))) (not (= x114 (x145 (x145 x144 x114) x144)))) (not (= x114 (x145 (x145 x158 x114) x158)))) (and (and (not (= (x145 (x145 x144 x146) x144) x146)) (and (and (not (= x146 (x145 (x145 x114 x146) x114))) (not (= x146 (x145 (x145 x146 x146) x146)))) (not (= (x145 (x145 x23 x146) x23) x146)))) (not (= (x145 (x145 x158 x146) x158) x146))))) (and (not (= (x145 (x145 x158 x144) x158) x144)) (and (and (and (not (= x144 (x145 (x145 x146 x144) x146))) (not (= x144 (x145 (x145 x114 x144) x114)))) (not (= x144 (x145 (x145 x23 x144) x23)))) (not (= x144 (x145 (x145 x144 x144) x144)))))) (and (and (not (= (x145 (x145 x144 x158) x144) x158)) (and (and (not (= x158 (x145 (x145 x114 x158) x114))) (not (= x158 (x145 (x145 x146 x158) x146)))) (not (= x158 (x145 (x145 x23 x158) x23))))) (not (= x158 (x145 (x145 x158 x158) x158))))))
(assert (let ((x105 (x145 x146 x158)) (x116 (x145 x158 x146)) (x14 (x145 x158 x144)) (x81 (x145 x158 x158)) (x136 (x145 x114 x144)) (x24 (x145 x114 x158)) (x31 (x145 x23 x23)) (x103 (x145 x23 x114)) (x82 (x145 x114 x146)) (x6 (x145 x146 x23)) (x43 (x145 x114 x114)) (x135 (x145 x146 x144)) (x127 (x145 x114 x23)) (x121 (x145 x144 x114)) (x88 (x145 x144 x144)) (x90 (x145 x144 x158)) (x71 (x145 x144 x23)) (x156 (x145 x158 x23)) (x63 (x145 x23 x158)) (x55 (x145 x146 x114)) (x123 (x145 x158 x114)) (x10 (x145 x144 x146)) (x52 (x145 x146 x146)) (x41 (x145 x23 x144)) (x62 (x145 x23 x146))) (let ((x79 (= x144 x52)) (x117 (= x158 x41)) (x2 (= x144 x31)) (x109 (= x158 x82)) (x25 (= x82 x114)) (x141 (= x123 x158)) (x48 (= x105 x23)) (x58 (= x114 x6)) (x3 (= x103 x23)) (x61 (= x10 x114)) (x89 (= x105 x144)) (x139 (= x146 x81)) (x83 (= x114 x90)) (x9 (= x63 x23)) (x16 (= x121 x146)) (x64 (= x144 x6)) (x56 (= x144 x41)) (x38 (= x144 x156)) (x68 (= x158 x88)) (x154 (= x23 x90)) (x76 (= x146 x88)) (x143 (= x146 x31)) (x40 (= x158 x135)) (x50 (= x144 x63)) (x39 (= x6 x146)) (x59 (= x41 x146)) (x131 (= x146 x14)) (x107 (= x146 x105)) (x85 (= x135 x23)) (x53 (= x52 x146)) (x130 (= x136 x114)) (x159 (= x63 x114)) (x45 (= x23 x52)) (x148 (= x135 x144)) (x101 (= x10 x144)) (x32 (= x24 x144)) (x4 (= x62 x158)) (x125 (= x114 x71)) (x35 (= x127 x114)) (x150 (= x146 x156)) (x129 (= x41 x114)) (x5 (= x90 x146)) (x72 (= x114 x43)) (x86 (= x116 x146)) (x11 (= x90 x158)) (x7 (= x24 x146)) (x152 (= x114 x81)) (x113 (= x114 x103)) (x106 (= x144 x62)) (x132 (= x116 x158)) (x1 (= x6 x158)) (x95 (= x146 x63)) (x36 (= x23 x127)) (x27 (= x31 x158)) (x84 (= x23 x71)) (x75 (= x88 x23)) (x98 (= x144 x88)) (x96 (= x55 x114)) (x33 (= x144 x136)) (x77 (= x41 x23)) (x93 (= x52 x114)) (x26 (= x156 x114)) (x142 (= x6 x23)) (x91 (= x123 x146)) (x78 (= x62 x114)) (x149 (= x82 x23)) (x118 (= x114 x88)) (x17 (= x10 x23)) (x97 (= x43 x23)) (x51 (= x105 x158)) (x112 (= x127 x158)) (x22 (= x144 x81)) (x67 (= x144 x43)) (x126 (= x136 x23)) (x147 (= x114 x123)) (x87 (= x121 x144)) (x19 (= x23 x116)) (x122 (= x14 x114)) (x124 (= x146 x82)) (x70 (= x114 x135)) (x157 (= x10 x146)) (x140 (= x144 x71)) (x66 (= x23 x55)) (x57 (= x23 x121)) (x42 (= x116 x144)) (x128 (= x71 x158)) (x60 (= x158 x43)) (x74 (= x114 x116)) (x104 (= x158 x121)) (x37 (= x14 x23)) (x12 (= x158 x63)) (x92 (= x144 x123)) (x133 (= x146 x62)) (x155 (= x23 x24)) (x134 (= x103 x146)) (x119 (= x31 x114)) (x99 (= x24 x158)) (x94 (= x127 x146)) (x151 (= x103 x144)) (x8 (= x146 x43)) (x153 (= x105 x114)) (x111 (= x127 x144)) (x108 (= x158 x55)) (x137 (= x114 x24)) (x138 (= x31 x23)) (x73 (= x158 x10)) (x102 (= x146 x71)) (x46 (= x136 x146)) (x65 (= x14 x144)) (x15 (= x158 x81)) (x44 (= x158 x14)) (x115 (= x81 x23)) (x18 (= x144 x55)) (x69 (= x23 x123)) (x80 (= x23 x156)) (x20 (= x144 x90)) (x28 (= x146 x55)) (x49 (= x62 x23)) (x34 (= x52 x158)) (x110 (= x158 x156)) (x30 (= x103 x158)) (x47 (= x114 x121)) (x54 (= x136 x158)) (x100 (= x135 x146)) (x29 (= x82 x144))) (and (and (and (and (and (and (and (or (or (or x151 (or x18 x67)) x87) x92) (or (or (or x111 (or x29 x67)) x33) x32)) (and (and (or (or x126 (or (or x149 x97) x36)) x155) (or (or x57 (or (or x97 x66) x3)) x69)) (and (and (or x7 (or x46 (or (or x8 x124) x94))) (or (or (or (or x8 x28) x134) x16) x91)) (and (or (or x47 (or x113 (or x96 x72))) x147) (or (or x130 (or (or x25 x72) x35)) x137))))) (and (or (or (or x112 (or x60 x109)) x54) x99) (or (or x104 (or (or x108 x60) x30)) x141))) (and (and (or (or x40 (or x1 (or x34 x108))) x51) (or (or (or (or x109 x34) x4) x73) x132)) (and (and (and (or (or x17 (or (or x45 x149) x49)) x19) (or (or (or (or x45 x66) x142) x85) x48)) (and (and (or (or (or x78 (or x25 x93)) x61) x74) (or (or (or x58 (or x96 x93)) x70) x153)) (and (or x107 (or x100 (or x39 (or x53 x28)))) (or x86 (or (or x133 (or x53 x124)) x157))))) (and (or x89 (or x148 (or (or x18 x79) x64))) (or x42 (or (or (or x79 x29) x106) x101)))))) (and (and (or (or (or x27 (or x1 x112)) x128) x110) (or (or x117 (or (or x4 x30) x27)) x12)) (and (and (and (and (or (or x102 (or (or x94 x39) x143)) x150) (or (or (or x143 (or x134 x133)) x59) x95)) (and (or x26 (or (or (or x35 x58) x119) x125)) (or (or (or (or x78 x113) x119) x129) x159))) (and (or x9 (or (or (or x49 x3) x138) x77)) (or (or x84 (or (or x36 x142) x138)) x80))) (and (or (or (or (or x111 x64) x2) x140) x38) (or (or (or x2 (or x151 x106)) x56) x50))))) (and (and (or (or (or x128 (or x73 x104)) x68) x11) (or x44 (or x68 (or (or x54 x40) x117)))) (and (and (and (or x154 (or x75 (or x84 (or x17 x57)))) (or (or (or x77 (or x126 x85)) x75) x37)) (and (and (or x5 (or x76 (or (or x16 x157) x102))) (or (or x76 (or x59 (or x100 x46))) x131)) (and (or x83 (or x118 (or x125 (or x47 x61)))) (or x122 (or (or x129 (or x130 x70)) x118))))) (and (or (or (or x140 (or x101 x87)) x98) x20) (or x65 (or x98 (or x56 (or x33 x148)))))))) (and (and (or x15 (or (or (or x51 x99) x12) x11)) (or x15 (or x44 (or (or x141 x132) x110)))) (and (and (or (or (or (or x92 x42) x38) x65) x22) (or x22 (or x20 (or (or x32 x89) x50)))) (and (and (or x115 (or (or (or x48 x155) x9) x154)) (or (or (or (or x19 x69) x80) x37) x115)) (and (and (or x152 (or (or (or x137 x153) x159) x83)) (or x152 (or (or x26 (or x74 x147)) x122))) (and (or (or (or (or x107 x7) x95) x5) x139) (or (or x131 (or x150 (or x91 x86))) x139))))))))))
(assert (let ((x121 (x145 x158 x146)) (x6 (x145 x158 x144)) (x52 (x145 x144 x144)) (x135 (x145 x114 x158)) (x103 (x145 x144 x146)) (x43 (x145 x146 x114)) (x93 (x145 x146 x144)) (x105 (x145 x146 x158)) (x127 (x145 x144 x114)) (x25 (x145 x114 x144)) (x62 (x145 x158 x158)) (x97 (x145 x146 x23)) (x24 (x145 x114 x146)) (x55 (x145 x23 x146)) (x28 (x145 x23 x144)) (x136 (x145 x158 x114)) (x124 (x145 x23 x158)) (x53 (x145 x144 x158)) (x96 (x145 x158 x23)) (x8 (x145 x146 x146)) (x82 (x145 x23 x114)) (x60 (x145 x144 x23)) (x72 (x145 x114 x114)) (x67 (x145 x23 x23)) (x123 (x145 x114 x23))) (and (and (and (and (and (and (and (not (= x53 x105)) (and (not (= x124 x105)) (and (and (not (= x53 x135)) (and (not (= x105 x135)) (not (= x124 x135)))) (not (= x135 x62))))) (not (= x62 x105))) (not (= x124 x53))) (not (= x124 x62))) (not (= x62 x53))) (and (and (and (and (not (= x28 x52)) (and (and (and (not (= x93 x28)) (and (and (and (not (= x25 x28)) (not (= x25 x93))) (not (= x25 x52))) (not (= x6 x25)))) (not (= x52 x93))) (not (= x93 x6)))) (not (= x6 x28))) (not (= x52 x6))) (and (and (not (= x96 x60)) (and (not (= x67 x96)) (and (not (= x67 x60)) (and (and (not (= x60 x97)) (and (and (and (not (= x123 x60)) (and (not (= x67 x123)) (not (= x123 x97)))) (not (= x96 x123))) (not (= x97 x67)))) (not (= x96 x97)))))) (and (and (not (= x127 x136)) (and (not (= x82 x136)) (and (and (and (and (and (and (and (not (= x43 x72)) (not (= x82 x72))) (not (= x127 x72))) (not (= x72 x136))) (not (= x82 x43))) (not (= x127 x43))) (not (= x43 x136))) (not (= x82 x127))))) (and (not (= x103 x121)) (and (and (not (= x103 x55)) (and (not (= x8 x121)) (and (and (and (and (not (= x103 x24)) (and (not (= x55 x24)) (not (= x24 x8)))) (not (= x24 x121))) (not (= x55 x8))) (not (= x103 x8))))) (not (= x121 x55)))))))) (and (and (not (= x6 x62)) (and (and (and (and (not (= x121 x6)) (and (not (= x121 x96)) (and (not (= x62 x136)) (and (and (not (= x136 x96)) (not (= x121 x136))) (not (= x6 x136)))))) (not (= x121 x62))) (not (= x6 x96))) (not (= x62 x96)))) (and (and (and (and (not (= x25 x135)) (and (and (not (= x25 x123)) (and (not (= x135 x24)) (and (not (= x25 x24)) (and (not (= x123 x24)) (and (not (= x135 x72)) (and (not (= x25 x72)) (and (not (= x24 x72)) (not (= x123 x72))))))))) (not (= x123 x135)))) (and (and (and (not (= x93 x97)) (and (not (= x105 x8)) (and (not (= x93 x8)) (and (and (and (not (= x93 x43)) (and (not (= x8 x43)) (not (= x43 x97)))) (not (= x43 x105))) (not (= x8 x97)))))) (not (= x105 x97))) (not (= x93 x105)))) (and (not (= x28 x124)) (and (and (not (= x67 x28)) (and (not (= x55 x124)) (and (not (= x28 x55)) (and (not (= x55 x67)) (and (not (= x82 x124)) (and (not (= x82 x28)) (and (not (= x82 x67)) (not (= x55 x82))))))))) (not (= x67 x124))))) (and (and (not (= x60 x53)) (and (not (= x52 x60)) (and (and (and (and (and (not (= x127 x52)) (and (not (= x103 x127)) (not (= x60 x127)))) (not (= x127 x53))) (not (= x60 x103))) (not (= x103 x52))) (not (= x53 x103))))) (not (= x52 x53))))))))
(assert (let ((x136 (x145 x158 x158)) (x127 (x145 x144 x144)) (x82 (x145 x23 x23)) (x72 (x145 x114 x114)) (x43 (x145 x146 x146))) (or (= x158 (x145 x136 x136)) (or (or (or (= x146 (x145 x43 x43)) (= x114 (x145 x72 x72))) (= x23 (x145 x82 x82))) (= (x145 x127 x127) x144)))))
(assert (or (and (and (and (not (= x23 (x145 x158 x23))) (and (not (= (x145 x158 x114) x114)) (not (= x146 (x145 x158 x146))))) (not (= x144 (x145 x158 x144)))) (not (= (x145 x158 x158) x158))) (or (and (not (= (x145 x144 x158) x158)) (and (and (not (= (x145 x144 x23) x23)) (and (not (= x114 (x145 x144 x114))) (not (= x146 (x145 x144 x146))))) (not (= x144 (x145 x144 x144))))) (or (and (not (= (x145 x23 x158) x158)) (and (and (not (= (x145 x23 x23) x23)) (and (not (= x114 (x145 x23 x114))) (not (= x146 (x145 x23 x146))))) (not (= x144 (x145 x23 x144))))) (or (and (not (= (x145 x146 x158) x158)) (and (and (and (not (= (x145 x146 x146) x146)) (not (= x114 (x145 x146 x114)))) (not (= x23 (x145 x146 x23)))) (not (= x144 (x145 x146 x144))))) (and (not (= (x145 x114 x158) x158)) (and (not (= (x145 x114 x144) x144)) (and (and (not (= (x145 x114 x114) x114)) (not (= x146 (x145 x114 x146)))) (not (= (x145 x114 x23) x23))))))))))
(assert (let ((x127 (x145 x144 x144)) (x136 (x145 x158 x158)) (x82 (x145 x23 x23)) (x43 (x145 x146 x146)) (x72 (x145 x114 x114))) (or (and (not (= x158 x136)) (and (not (= x127 x158)) (and (and (not (= x72 x158)) (not (= x158 x43))) (not (= x158 x82))))) (or (or (and (not (= x23 x136)) (and (and (and (not (= x23 x72)) (not (= x43 x23))) (not (= x23 x82))) (not (= x23 x127)))) (or (and (not (= x136 x146)) (and (and (not (= x82 x146)) (and (not (= x43 x146)) (not (= x146 x72)))) (not (= x127 x146)))) (and (and (and (not (= x114 x82)) (and (not (= x114 x72)) (not (= x43 x114)))) (not (= x127 x114))) (not (= x114 x136))))) (and (not (= x144 x136)) (and (not (= x127 x144)) (and (not (= x144 x82)) (and (not (= x72 x144)) (not (= x144 x43))))))))))
(assert (not (and (and (= (x145 x158 x144) x146) (and (and (= x144 (x145 x158 x146)) (and (and (= (x145 x144 x158) x23) (and (and (and (= (x145 x144 x146) x158) (and (and (and (and (and (= x114 (x145 x23 x146)) (and (and (= (x145 x146 x158) x146) (and (and (= x158 (x145 x146 x23)) (and (and (and (and (and (and (= (x145 x114 x146) x146) (= x144 (x145 x114 x114))) (= x114 (x145 x114 x23))) (= x23 (x145 x114 x144))) (= x158 (x145 x114 x158))) (= (x145 x146 x114) x114)) (= x23 (x145 x146 x146)))) (= (x145 x146 x144) x144))) (= (x145 x23 x114) x23))) (= (x145 x23 x23) x146)) (= x158 (x145 x23 x144))) (= x144 (x145 x23 x158))) (= x146 (x145 x144 x114)))) (= (x145 x144 x23) x144)) (= (x145 x144 x144) x114))) (= x158 (x145 x158 x114)))) (= x23 (x145 x158 x23)))) (= x114 (x145 x158 x158)))))
(assert (let ((x1 (x145 x158 x144)) (x10 (x145 x114 x114)) (x16 (x145 x158 x158)) (x142 (x145 x158 x23)) (x41 (x145 x158 x146)) (x71 (x145 x23 x23)) (x31 (x145 x146 x158)) (x29 (x145 x114 x144)) (x108 (x145 x114 x158)) (x112 (x145 x144 x158)) (x109 (x145 x158 x114)) (x79 (x145 x144 x114)) (x119 (x145 x23 x146)) (x149 (x145 x146 x114)) (x49 (x145 x144 x23)) (x36 (x145 x23 x158)) (x58 (x145 x146 x23)) (x30 (x145 x144 x144)) (x66 (x145 x114 x146)) (x78 (x145 x146 x146)) (x18 (x145 x23 x114)) (x3 (x145 x23 x144)) (x45 (x145 x114 x23)) (x134 (x145 x146 x144)) (x133 (x145 x144 x146))) (let ((x139 (= x144 x1)) (x140 (= x23 x108)) (x136 (= x114 x18)) (x88 (= x149 x23)) (x155 (= x66 x158)) (x73 (= x23 x112)) (x55 (= x58 x114)) (x37 (= x158 x149)) (x110 (= x41 x158)) (x6 (= x31 x114)) (x116 (= x146 x10)) (x50 (= x158 x49)) (x124 (= x1 x114)) (x135 (= x114 x142)) (x94 (= x45 x146)) (x156 (= x71 x146)) (x15 (= x16 x158)) (x72 (= x10 x114)) (x103 (= x114 x71)) (x12 (= x158 x1)) (x129 (= x1 x146)) (x123 (= x29 x114)) (x85 (= x134 x23)) (x9 (= x18 x158)) (x19 (= x16 x144)) (x98 (= x36 x23)) (x118 (= x146 x112)) (x117 (= x144 x66)) (x138 (= x146 x79)) (x56 (= x142 x23)) (x63 (= x146 x18)) (x33 (= x41 x23)) (x43 (= x114 x149)) (x86 (= x144 x3)) (x20 (= x158 x3)) (x61 (= x41 x146)) (x147 (= x144 x18)) (x99 (= x142 x158)) (x39 (= x146 x119)) (x96 (= x3 x114)) (x89 (= x134 x158)) (x35 (= x146 x78)) (x25 (= x30 x114)) (x143 (= x146 x58)) (x32 (= x158 x133)) (x59 (= x23 x45)) (x22 (= x158 x30)) (x27 (= x109 x146)) (x68 (= x144 x78)) (x95 (= x144 x142)) (x62 (= x114 x16)) (x80 (= x10 x158)) (x132 (= x108 x158)) (x77 (= x23 x49)) (x7 (= x41 x144)) (x64 (= x49 x146)) (x104 (= x1 x23)) (x87 (= x30 x23)) (x92 (= x158 x58)) (x106 (= x133 x146)) (x105 (= x36 x114)) (x26 (= x119 x144)) (x65 (= x29 x158)) (x4 (= x146 x30)) (x52 (= x41 x114)) (x122 (= x144 x58)) (x159 (= x29 x144)) (x76 (= x119 x23)) (x100 (= x23 x18)) (x5 (= x36 x144)) (x75 (= x3 x23)) (x53 (= x112 x114)) (x130 (= x142 x146)) (x74 (= x45 x144)) (x28 (= x114 x108)) (x128 (= x23 x16)) (x83 (= x144 x133)) (x40 (= x144 x149)) (x126 (= x133 x23)) (x152 (= x144 x134)) (x67 (= x134 x114)) (x60 (= x114 x49)) (x8 (= x119 x114)) (x137 (= x144 x71)) (x115 (= x158 x119)) (x111 (= x134 x146)) (x125 (= x146 x31)) (x69 (= x112 x144)) (x113 (= x146 x66)) (x46 (= x78 x23)) (x157 (= x146 x16)) (x84 (= x29 x23)) (x102 (= x23 x10)) (x38 (= x79 x158)) (x81 (= x108 x144)) (x127 (= x114 x78)) (x148 (= x31 x23)) (x141 (= x109 x158)) (x34 (= x149 x146)) (x70 (= x36 x146)) (x153 (= x79 x144)) (x51 (= x158 x36)) (x90 (= x23 x66)) (x11 (= x112 x158)) (x151 (= x29 x146)) (x48 (= x158 x78)) (x97 (= x114 x133)) (x150 (= x30 x144)) (x2 (= x146 x3)) (x107 (= x144 x31)) (x17 (= x23 x79)) (x47 (= x108 x146)) (x24 (= x114 x45)) (x82 (= x114 x66)) (x57 (= x23 x71)) (x121 (= x114 x79)) (x91 (= x49 x144)) (x101 (= x23 x109)) (x44 (= x158 x31)) (x14 (= x58 x23)) (x93 (= x114 x109)) (x154 (= x45 x158)) (x54 (= x10 x144)) (x131 (= x144 x109)) (x42 (= x71 x158))) (and (or (or (or (or (and x22 (not x22)) (or (and (not x20) x50) (or (and (not x89) x32) (and x38 (not x65))))) (and (not x12) x11)) (or (or (or (and x44 (not x110)) (or (and x89 (not x32)) (or (and (not x115) x92) (or (and (not x48) x48) (and (not x155) x37))))) (or (or (or (and (not x9) x154) (or (and x155 (not x37)) (and x80 (not x80)))) (and x65 (not x38))) (and x132 (not x141)))) (or (and x51 (not x99)) (or (or (and x42 (not x42)) (or (and x115 (not x92)) (and (not x154) x9))) (and (not x50) x20))))) (or (or (and (not x11) x12) (or (and (not x51) x99) (or (and (not x44) x110) (and (not x132) x141)))) (and (not x15) x15))) (and (and (and (or (or (or (and (not x53) x124) (or (and (not x105) x135) (or (and x93 (not x28)) (and (not x6) x52)))) (and x62 (not x62))) (or (or (and x53 (not x124)) (or (or (and (not x96) x60) (or (and x121 (not x123)) (and (not x67) x97))) (and x25 (not x25)))) (or (or (or (or (and x67 (not x97)) (or (or (and x127 (not x127)) (and (not x82) x43)) (and (not x8) x55))) (and (not x52) x6)) (or (or (or (and x24 (not x136)) (or (and (not x72) x72) (and (not x43) x82))) (and (not x121) x123)) (and (not x93) x28))) (or (or (and (not x60) x96) (or (or (and (not x55) x8) (and x136 (not x24))) (and x103 (not x103)))) (and x105 (not x135)))))) (or (or (or (or (or (or (and x138 (not x151)) (and (not x111) x106)) (and x64 (not x2))) (and x4 (not x4))) (and (not x129) x118)) (or (or (or (and x47 (not x27)) (or (and (not x138) x151) (or (or (and x113 (not x34)) (and x116 (not x116))) (and (not x63) x94)))) (or (or (or (or (and x35 (not x35)) (and (not x113) x34)) (and (not x39) x143)) (and (not x106) x111)) (and (not x61) x125))) (or (or (and x2 (not x64)) (or (and (not x156) x156) (or (and x39 (not x143)) (and x63 (not x94))))) (and x70 (not x130))))) (or (and x157 (not x157)) (or (or (and (not x70) x130) (or (and x27 (not x47)) (and (not x125) x61))) (and x129 (not x118)))))) (or (or (or (or (or (or (or (and (not x14) x76) (and (not x59) x100)) (and x57 (not x57))) (and x75 (not x77))) (and (not x56) x98)) (or (or (and x148 (not x33)) (or (and x85 (not x126)) (or (or (and x88 (not x90)) (and (not x46) x46)) (and x14 (not x76))))) (or (or (and (not x17) x84) (or (or (and (not x88) x90) (and (not x102) x102)) (and x59 (not x100)))) (and (not x101) x140)))) (or (or (and x87 (not x87)) (or (and x77 (not x75)) (or (and (not x84) x17) (and x126 (not x85))))) (and (not x104) x73))) (or (and (not x128) x128) (or (and (not x73) x104) (or (and x56 (not x98)) (or (and x101 (not x140)) (and (not x148) x33))))))) (or (or (and (not x19) x19) (or (and (not x69) x139) (or (and x95 (not x5)) (or (and (not x107) x7) (and (not x81) x131))))) (or (or (or (or (or (and (not x152) x83) (and (not x159) x153)) (and x91 (not x86))) (and (not x150) x150)) (and (not x139) x69)) (or (or (or (and (not x131) x81) (or (and (not x153) x159) (or (and x74 (not x147)) (or (and x117 (not x40)) (and (not x54) x54))))) (or (and (not x7) x107) (or (or (and (not x26) x122) (or (and x68 (not x68)) (and (not x117) x40))) (and x152 (not x83))))) (or (and x5 (not x95)) (or (and (not x91) x86) (or (or (and x26 (not x122)) (and x147 (not x74))) (and x137 (not x137)))))))))))))
(assert (or (or (and (not (= (x145 x158 x144) x158)) (and (and (not (= (x145 x23 x144) x23)) (and (not (= (x145 x114 x144) x114)) (not (= (x145 x146 x144) x146)))) (not (= (x145 x144 x144) x144)))) (or (or (and (and (not (= (x145 x144 x146) x144)) (and (not (= x23 (x145 x23 x146))) (and (not (= x146 (x145 x146 x146))) (not (= (x145 x114 x146) x114))))) (not (= x158 (x145 x158 x146)))) (and (not (= (x145 x158 x114) x158)) (and (not (= x144 (x145 x144 x114))) (and (not (= (x145 x23 x114) x23)) (and (not (= x146 (x145 x146 x114))) (not (= (x145 x114 x114) x114))))))) (and (and (and (not (= x23 (x145 x23 x23))) (and (not (= x114 (x145 x114 x23))) (not (= x146 (x145 x146 x23))))) (not (= (x145 x144 x23) x144))) (not (= (x145 x158 x23) x158))))) (and (and (not (= (x145 x144 x158) x144)) (and (and (not (= (x145 x146 x158) x146)) (not (= x114 (x145 x114 x158)))) (not (= x23 (x145 x23 x158))))) (not (= (x145 x158 x158) x158)))))
(assert (and (and (and (= x146 (x145 x23 x23)) (= (x145 x144 x144) x114)) (= x144 (x145 x23 x158))) (= (x145 x146 x23) x158)))
(assert (and (and (not (= x23 x158)) (and (not (= x23 x144)) (and (not (= x146 x158)) (and (and (not (= x23 x146)) (and (and (not (= x144 x114)) (and (not (= x114 x146)) (not (= x114 x23)))) (not (= x158 x114)))) (not (= x146 x144)))))) (not (= x144 x158))))
(assert (or (or (or (or (and (not (= x158 (x145 x114 (x145 x114 x158)))) (and (and (and (not (= (x145 x114 (x145 x114 x114)) x114)) (not (= x146 (x145 x114 (x145 x114 x146))))) (not (= x23 (x145 x114 (x145 x114 x23))))) (not (= x144 (x145 x114 (x145 x114 x144)))))) (and (and (and (and (not (= (x145 x146 (x145 x146 x146)) x146)) (not (= (x145 x146 (x145 x146 x114)) x114))) (not (= (x145 x146 (x145 x146 x23)) x23))) (not (= (x145 x146 (x145 x146 x144)) x144))) (not (= x158 (x145 x146 (x145 x146 x158)))))) (and (and (not (= x144 (x145 x23 (x145 x23 x144)))) (and (not (= x23 (x145 x23 (x145 x23 x23)))) (and (not (= x114 (x145 x23 (x145 x23 x114)))) (not (= x146 (x145 x23 (x145 x23 x146))))))) (not (= x158 (x145 x23 (x145 x23 x158)))))) (and (and (not (= (x145 x144 (x145 x144 x144)) x144)) (and (not (= x23 (x145 x144 (x145 x144 x23)))) (and (not (= x114 (x145 x144 (x145 x144 x114)))) (not (= (x145 x144 (x145 x144 x146)) x146))))) (not (= (x145 x144 (x145 x144 x158)) x158)))) (and (not (= x158 (x145 x158 (x145 x158 x158)))) (and (and (and (not (= (x145 x158 (x145 x158 x146)) x146)) (not (= x114 (x145 x158 (x145 x158 x114))))) (not (= (x145 x158 (x145 x158 x23)) x23))) (not (= (x145 x158 (x145 x158 x144)) x144))))))
(assert (let ((x109 (x145 x158 x114)) (x149 (x145 x146 x114)) (x142 (x145 x158 x23)) (x36 (x145 x23 x158)) (x71 (x145 x23 x23)) (x29 (x145 x114 x144)) (x119 (x145 x23 x146)) (x10 (x145 x114 x114)) (x45 (x145 x114 x23)) (x134 (x145 x146 x144)) (x30 (x145 x144 x144)) (x31 (x145 x146 x158)) (x18 (x145 x23 x114)) (x58 (x145 x146 x23)) (x108 (x145 x114 x158)) (x66 (x145 x114 x146)) (x79 (x145 x144 x114)) (x1 (x145 x158 x144)) (x3 (x145 x23 x144)) (x133 (x145 x144 x146)) (x78 (x145 x146 x146)) (x41 (x145 x158 x146)) (x112 (x145 x144 x158)) (x49 (x145 x144 x23)) (x16 (x145 x158 x158))) (let ((x46 (= x78 x23)) (x80 (= x10 x158)) (x52 (= x41 x114)) (x76 (= x23 x119)) (x50 (= x49 x158)) (x32 (= x133 x158)) (x155 (= x66 x158)) (x141 (= x158 x109)) (x140 (= x23 x108)) (x59 (= x45 x23)) (x90 (= x66 x23)) (x157 (= x146 x16)) (x156 (= x71 x146)) (x35 (= x78 x146)) (x87 (= x30 x23)) (x137 (= x144 x71)) (x8 (= x119 x114)) (x92 (= x58 x158)) (x153 (= x79 x144)) (x154 (= x158 x45)) (x44 (= x31 x158)) (x106 (= x146 x133)) (x5 (= x144 x36)) (x126 (= x133 x23)) (x15 (= x158 x16)) (x86 (= x144 x3)) (x22 (= x30 x158)) (x103 (= x114 x71)) (x33 (= x41 x23)) (x110 (= x41 x158)) (x139 (= x1 x144)) (x101 (= x23 x109)) (x121 (= x79 x114)) (x88 (= x149 x23)) (x27 (= x146 x109)) (x2 (= x3 x146)) (x107 (= x144 x31)) (x124 (= x1 x114)) (x131 (= x144 x109)) (x56 (= x142 x23)) (x37 (= x158 x149)) (x42 (= x158 x71)) (x77 (= x23 x49)) (x128 (= x23 x16)) (x38 (= x79 x158)) (x43 (= x149 x114)) (x151 (= x146 x29)) (x11 (= x112 x158)) (x132 (= x108 x158)) (x111 (= x134 x146)) (x57 (= x23 x71)) (x14 (= x58 x23)) (x63 (= x146 x18)) (x159 (= x29 x144)) (x70 (= x146 x36)) (x28 (= x108 x114)) (x64 (= x146 x49)) (x73 (= x23 x112)) (x74 (= x144 x45)) (x102 (= x23 x10)) (x148 (= x23 x31)) (x39 (= x146 x119)) (x152 (= x134 x144)) (x136 (= x114 x18)) (x24 (= x114 x45)) (x97 (= x133 x114)) (x122 (= x144 x58)) (x12 (= x1 x158)) (x93 (= x114 x109)) (x150 (= x144 x30)) (x118 (= x112 x146)) (x99 (= x158 x142)) (x65 (= x29 x158)) (x67 (= x134 x114)) (x47 (= x146 x108)) (x85 (= x134 x23)) (x94 (= x45 x146)) (x95 (= x144 x142)) (x75 (= x3 x23)) (x130 (= x142 x146)) (x82 (= x66 x114)) (x143 (= x58 x146)) (x105 (= x114 x36)) (x6 (= x31 x114)) (x125 (= x146 x31)) (x127 (= x78 x114)) (x98 (= x36 x23)) (x62 (= x114 x16)) (x72 (= x10 x114)) (x9 (= x18 x158)) (x117 (= x144 x66)) (x68 (= x78 x144)) (x81 (= x144 x108)) (x69 (= x112 x144)) (x40 (= x144 x149)) (x55 (= x114 x58)) (x34 (= x146 x149)) (x129 (= x1 x146)) (x89 (= x158 x134)) (x100 (= x18 x23)) (x116 (= x10 x146)) (x48 (= x158 x78)) (x53 (= x114 x112)) (x51 (= x158 x36)) (x96 (= x114 x3)) (x4 (= x30 x146)) (x135 (= x114 x142)) (x91 (= x144 x49)) (x113 (= x146 x66)) (x17 (= x79 x23)) (x20 (= x158 x3)) (x19 (= x144 x16)) (x54 (= x10 x144)) (x26 (= x144 x119)) (x115 (= x119 x158)) (x123 (= x29 x114)) (x25 (= x114 x30)) (x84 (= x23 x29)) (x60 (= x49 x114)) (x61 (= x146 x41)) (x147 (= x18 x144)) (x138 (= x146 x79)) (x104 (= x23 x1)) (x83 (= x133 x144)) (x7 (= x41 x144))) (and (and (or (or (and x19 x19) (or (or (or (and x7 x107) (and x131 x81)) (and x95 x5)) (and x139 x69))) (or (or (or (or (or (or (and x122 x26) (or (and x117 x40) (and x68 x68))) (and x83 x152)) (and x107 x7)) (or (or (or (or (and x54 x54) (and x40 x117)) (and x74 x147)) (and x153 x159)) (and x131 x81))) (or (or (or (and x137 x137) (or (and x74 x147) (and x122 x26))) (and x86 x91)) (and x95 x5))) (or (and x139 x69) (or (and x150 x150) (or (or (and x152 x83) (and x153 x159)) (and x91 x86)))))) (and (and (or (or (or (or (or (or (and x138 x151) (and x106 x111)) (and x64 x2)) (and x4 x4)) (and x129 x118)) (or (or (or (or (or (and x143 x39) (or (and x35 x35) (and x113 x34))) (and x106 x111)) (and x125 x61)) (or (or (or (or (and x34 x113) (and x116 x116)) (and x63 x94)) (and x151 x138)) (and x27 x47))) (or (or (and x64 x2) (or (or (and x63 x94) (and x143 x39)) (and x156 x156))) (and x70 x130)))) (or (and x157 x157) (or (and x129 x118) (or (or (and x61 x125) (and x27 x47)) (and x70 x130))))) (or (or (and x62 x62) (or (and x124 x53) (or (or (and x28 x93) (and x6 x52)) (and x105 x135)))) (or (or (and x124 x53) (or (and x25 x25) (or (and x60 x96) (or (and x97 x67) (and x123 x121))))) (or (or (or (and x28 x93) (or (or (and x24 x136) (or (and x43 x82) (and x72 x72))) (and x121 x123))) (or (and x6 x52) (or (and x67 x97) (or (or (and x43 x82) (and x127 x127)) (and x8 x55))))) (or (or (or (and x103 x103) (or (and x24 x136) (and x8 x55))) (and x96 x60)) (and x105 x135)))))) (or (or (or (and x104 x73) (or (and x87 x87) (or (or (and x126 x85) (and x84 x17)) (and x77 x75)))) (or (or (or (or (or (or (and x90 x88) (and x102 x102)) (and x59 x100)) (and x84 x17)) (and x101 x140)) (or (and x148 x33) (or (and x85 x126) (or (and x14 x76) (or (and x46 x46) (and x90 x88)))))) (or (and x98 x56) (or (or (or (and x14 x76) (and x100 x59)) (and x57 x57)) (and x75 x77))))) (or (and x128 x128) (or (or (or (and x140 x101) (and x33 x148)) (and x98 x56)) (and x104 x73)))))) (or (or (or (or (or (or (or (or (and x37 x155) (and x48 x48)) (and x115 x92)) (and x89 x32)) (and x110 x44)) (or (and x132 x141) (or (and x38 x65) (or (or (and x37 x155) (and x80 x80)) (and x154 x9))))) (or (and x99 x51) (or (and x20 x50) (or (or (and x154 x9) (and x115 x92)) (and x42 x42))))) (or (or (or (and x20 x50) (or (and x65 x38) (and x32 x89))) (and x22 x22)) (and x12 x11))) (or (and x15 x15) (or (and x12 x11) (or (or (and x141 x132) (and x44 x110)) (and x51 x99)))))))))
(assert (let ((x124 (x145 x158 x144)) (x55 (x145 x146 x23)) (x93 (x145 x158 x114)) (x103 (= x23 (x145 x23 x23))) (x105 (x145 x23 x158)) (x72 (= x114 (x145 x114 x114))) (x53 (x145 x144 x158)) (x24 (x145 x114 x23)) (x62 (= x158 (x145 x158 x158))) (x136 (x145 x23 x114)) (x135 (x145 x158 x23)) (x25 (= x144 (x145 x144 x144))) (x123 (x145 x114 x144)) (x97 (x145 x144 x146)) (x28 (x145 x114 x158)) (x127 (= (x145 x146 x146) x146)) (x8 (x145 x23 x146)) (x43 (x145 x146 x114)) (x52 (x145 x158 x146)) (x96 (x145 x23 x144)) (x121 (x145 x144 x114)) (x67 (x145 x146 x144)) (x6 (x145 x146 x158)) (x82 (x145 x114 x146)) (x60 (x145 x144 x23))) (or (or (and x62 x62) (or (or (or (and (= x158 x52) (= x6 x158)) (and (= x28 x158) (= x158 x93))) (and (= x105 x158) (= x135 x158))) (and (= x53 x158) (= x124 x158)))) (or (or (and (= x53 x144) (= x124 x144)) (or (and x25 x25) (or (or (and (= x123 x144) (= x144 x121)) (and (= x67 x144) (= x97 x144))) (and (= x144 x96) (= x144 x60))))) (or (or (or (and (= x93 x114) (= x28 x114)) (or (and (= x121 x114) (= x123 x114)) (or (or (and x72 x72) (and (= x114 x43) (= x114 x82))) (and (= x114 x24) (= x136 x114))))) (or (and (= x6 x146) (= x52 x146)) (or (and (= x146 x67) (= x146 x97)) (or (or (and x127 x127) (and (= x146 x43) (= x82 x146))) (and (= x55 x146) (= x146 x8)))))) (or (and (= x23 x135) (= x105 x23)) (or (and (= x60 x23) (= x23 x96)) (or (and x103 x103) (or (and (= x136 x23) (= x23 x24)) (and (= x23 x55) (= x8 x23)))))))))))
(check-sat)
(exit)
